40
    34    46    22     4    20    74    98    34    45    19    62    44     2    60    60    78    14    28    15    81    29     8    27     2    26    38    77    93    10     9    22    10    16    65    97    10     7     5    17    55
     2     5     1     8    10     7    10     7     4     5     7     8     1     2    10     6    10     9     3     3     4     2     2     6    10     3     5     1     6    10     7     4     9     7     2     5     2     3     1     2
   119   181   156     0   129   127     0     0     0   215   211     0     0   125     0     0     0     0   228    56     2     0     0     0     0   271   265   156     0     0     0     0    62     0   105   129     0   114     0     0
